c description: Perfect Matching Principle on 
c generator: CNFgen (0.9.0)
c copyright: (C) 2012-2020 Massimo Lauria <massimo.lauria@uniroma1.it>
c url: https://massimolauria.net/cnfgen
c
p cnf 80 341
-1 -2 0
-1 -3 0
-2 -3 0
1 2 3 0
-4 -5 0
-4 -6 0
-4 -7 0
-4 -8 0
-5 -6 0
-5 -7 0
-5 -8 0
-6 -7 0
-6 -8 0
-7 -8 0
4 5 6 7 8 0
-9 -10 0
9 10 0
-11 -12 0
-11 -13 0
-11 -14 0
-11 -15 0
-12 -13 0
-12 -14 0
-12 -15 0
-13 -14 0
-13 -15 0
-14 -15 0
11 12 13 14 15 0
-16 -17 0
-16 -18 0
-16 -19 0
-17 -18 0
-17 -19 0
-18 -19 0
16 17 18 19 0
-20 -21 0
-20 -22 0
-20 -23 0
-20 -24 0
-21 -22 0
-21 -23 0
-21 -24 0
-22 -23 0
-22 -24 0
-23 -24 0
20 21 22 23 24 0
-25 -26 0
-25 -27 0
-26 -27 0
25 26 27 0
-11 -20 0
11 20 0
-28 -29 0
-28 -30 0
-29 -30 0
28 29 30 0
-21 -31 0
-21 -32 0
-21 -33 0
-21 -34 0
-21 -35 0
-21 -36 0
-31 -32 0
-31 -33 0
-31 -34 0
-31 -35 0
-31 -36 0
-32 -33 0
-32 -34 0
-32 -35 0
-32 -36 0
-33 -34 0
-33 -35 0
-33 -36 0
-34 -35 0
-34 -36 0
-35 -36 0
21 31 32 33 34 35 36 0
-4 -28 0
-4 -31 0
-4 -37 0
-4 -38 0
-4 -39 0
-28 -31 0
-28 -37 0
-28 -38 0
-28 -39 0
-31 -37 0
-31 -38 0
-31 -39 0
-37 -38 0
-37 -39 0
-38 -39 0
4 28 31 37 38 39 0
-25 -40 0
-25 -41 0
-25 -42 0
-25 -43 0
-25 -44 0
-25 -45 0
-40 -41 0
-40 -42 0
-40 -43 0
-40 -44 0
-40 -45 0
-41 -42 0
-41 -43 0
-41 -44 0
-41 -45 0
-42 -43 0
-42 -44 0
-42 -45 0
-43 -44 0
-43 -45 0
-44 -45 0
25 40 41 42 43 44 45 0
-5 -16 0
-5 -46 0
-16 -46 0
5 16 46 0
47 0
-26 -32 0
-26 -48 0
-26 -49 0
-26 -50 0
-32 -48 0
-32 -49 0
-32 -50 0
-48 -49 0
-48 -50 0
-49 -50 0
26 32 48 49 50 0
-40 -51 0
-40 -52 0
-51 -52 0
40 51 52 0
0
-53 -54 0
-53 -55 0
-54 -55 0
53 54 55 0
-33 -37 0
-33 -41 0
-33 -56 0
-33 -57 0
-37 -41 0
-37 -56 0
-37 -57 0
-41 -56 0
-41 -57 0
-56 -57 0
33 37 41 56 57 0
-53 -58 0
-53 -59 0
-53 -60 0
-58 -59 0
-58 -60 0
-59 -60 0
53 58 59 60 0
-6 -51 0
-6 -61 0
-6 -62 0
-6 -63 0
-51 -61 0
-51 -62 0
-51 -63 0
-61 -62 0
-61 -63 0
-62 -63 0
6 51 61 62 63 0
-9 -12 0
-9 -22 0
-9 -61 0
-12 -22 0
-12 -61 0
-22 -61 0
9 12 22 61 0
-10 -17 0
10 17 0
-1 -13 0
-1 -34 0
-1 -48 0
-1 -52 0
-1 -64 0
-1 -65 0
-1 -66 0
-13 -34 0
-13 -48 0
-13 -52 0
-13 -64 0
-13 -65 0
-13 -66 0
-34 -48 0
-34 -52 0
-34 -64 0
-34 -65 0
-34 -66 0
-48 -52 0
-48 -64 0
-48 -65 0
-48 -66 0
-52 -64 0
-52 -65 0
-52 -66 0
-64 -65 0
-64 -66 0
-65 -66 0
1 13 34 48 52 64 65 66 0
-2 -42 0
-2 -67 0
-42 -67 0
2 42 67 0
-68 -69 0
-68 -70 0
-68 -71 0
-68 -72 0
-68 -73 0
-69 -70 0
-69 -71 0
-69 -72 0
-69 -73 0
-70 -71 0
-70 -72 0
-70 -73 0
-71 -72 0
-71 -73 0
-72 -73 0
68 69 70 71 72 73 0
-46 -58 0
-46 -68 0
-46 -74 0
-46 -75 0
-58 -68 0
-58 -74 0
-58 -75 0
-68 -74 0
-68 -75 0
-74 -75 0
46 58 68 74 75 0
-3 -7 0
-3 -14 0
-3 -35 0
-3 -43 0
-3 -49 0
-3 -76 0
-7 -14 0
-7 -35 0
-7 -43 0
-7 -49 0
-7 -76 0
-14 -35 0
-14 -43 0
-14 -49 0
-14 -76 0
-35 -43 0
-35 -49 0
-35 -76 0
-43 -49 0
-43 -76 0
-49 -76 0
3 7 14 35 43 49 76 0
-8 -15 0
-8 -62 0
-8 -69 0
-15 -62 0
-15 -69 0
-62 -69 0
8 15 62 69 0
-56 -70 0
-56 -74 0
-56 -77 0
-70 -74 0
-70 -77 0
-74 -77 0
56 70 74 77 0
-59 -67 0
-59 -75 0
-67 -75 0
59 67 75 0
-18 -27 0
-18 -57 0
-18 -78 0
-27 -57 0
-27 -78 0
-57 -78 0
18 27 57 78 0
38 0
-19 -64 0
-19 -71 0
-19 -76 0
-64 -71 0
-64 -76 0
-71 -76 0
19 64 71 76 0
-23 -44 0
-23 -54 0
-23 -72 0
-23 -79 0
-44 -54 0
-44 -72 0
-44 -79 0
-54 -72 0
-54 -79 0
-72 -79 0
23 44 54 72 79 0
-36 -65 0
-36 -79 0
-65 -79 0
36 65 79 0
-63 -73 0
-63 -78 0
-63 -80 0
-73 -78 0
-73 -80 0
-78 -80 0
63 73 78 80 0
-29 -39 0
-29 -47 0
-29 -66 0
-39 -47 0
-39 -66 0
-47 -66 0
29 39 47 66 0
-24 -30 0
-24 -45 0
-24 -55 0
-24 -77 0
-24 -80 0
-30 -45 0
-30 -55 0
-30 -77 0
-30 -80 0
-45 -55 0
-45 -77 0
-45 -80 0
-55 -77 0
-55 -80 0
-77 -80 0
24 30 45 55 77 80 0
-50 -60 0
50 60 0